7171
000000101010011000010110000010
10 10 10 22 10 22 10 19 28 19 19 22 28 22 22 21 19 14 21 19 21 6 6 6 6 6 6 8 8 8 8 13 8 13 10 19 19 6 14 28 13 19 19 22 6 14 19 13 13 28 22 13 13 22 19 14 13 22 19 14 19 19 28 14 14 14 14 13 19 19 